param m:= 3;
param n:= 10;

param c:=
356.25 593.75 59.38
356.25 593.75 178.13
178.13 475.00 296.88
356.25 475.00 296.88
237.50 475.00 356.25
415.63 415.63 296.88
356.25 415.63 356.25
356.25 356.25 475.00
178.13 475.00 593.75
356.25 296.88 593.75;

# unrestricted in part a
/*param s:=
4000
4000
4000
*/

param d:=
950.00
831.25
2375.00
593.75
950
593.75
1187.59
712.50
1187.50
1543.75;

